;(set-option :produce-unsat-cores true )
(set-logic ALL_SUPPORTED )
(declare-sort A$ 0 )
(declare-sort Nat$ 0 )
(declare-sort A_llist_a_llist_fun$ 0 )
(declare-sort A_a_prod_llist_a_a_prod_llist_fun$ 0 )
(declare-codatatypes ()((A_llist$ (lNil$ )(lCons$ (lhd$ A$ )(ltl$ A_llist$ )))))
(declare-sort A_a_prod$ 0)
(declare-fun fst$ (A_a_prod$)A$)
(declare-fun snd$ (A_a_prod$)A$)
(declare-fun pair$ (A$ A$ )A_a_prod$)
(declare-codatatypes ()((A_a_prod_llist$ (lNil$a )(lCons$a (lhd$a A_a_prod$ )(ltl$a A_a_prod_llist$ )))))
(declare-sort A_a_prod_a_a_prod_prod$ 0)
(declare-fun fst$a (A_a_prod_a_a_prod_prod$)A_a_prod$)
(declare-fun snd$a (A_a_prod_a_a_prod_prod$)A_a_prod$)
(declare-fun pair$a (A_a_prod$ A_a_prod$ )A_a_prod_a_a_prod_prod$)
(declare-codatatypes ()((A_a_prod_a_a_prod_prod_llist$ (lNil$b )(lCons$b (lhd$b A_a_prod_a_a_prod_prod$ )(ltl$b A_a_prod_a_a_prod_prod_llist$ )))))
(declare-sort A_a_prod_a_prod$ 0)
(declare-fun fst$b (A_a_prod_a_prod$)A_a_prod$)
(declare-fun snd$b (A_a_prod_a_prod$)A$)
(declare-fun pair$b (A_a_prod$ A$ )A_a_prod_a_prod$)
(declare-codatatypes ()((A_a_prod_a_prod_llist$ (lNil$c )(lCons$c (lhd$c A_a_prod_a_prod$ )(ltl$c A_a_prod_a_prod_llist$ )))))
(declare-sort A_a_a_prod_prod$ 0)
(declare-fun fst$c (A_a_a_prod_prod$)A$)
(declare-fun snd$c (A_a_a_prod_prod$)A_a_prod$)
(declare-fun pair$c (A$ A_a_prod$ )A_a_a_prod_prod$)
(declare-codatatypes ()((A_a_a_prod_prod_llist$ (lNil$d )(lCons$d (lhd$d A_a_a_prod_prod$ )(ltl$d A_a_a_prod_prod_llist$ )))))
(declare-sort A_a_a_prod_a_prod_prod$ 0)
(declare-fun fst$d (A_a_a_prod_a_prod_prod$)A$)
(declare-fun snd$d (A_a_a_prod_a_prod_prod$)A_a_prod_a_prod$)
(declare-fun pair$d (A$ A_a_prod_a_prod$ )A_a_a_prod_a_prod_prod$)
(declare-codatatypes ()((A_a_a_prod_a_prod_prod_llist$ (lNil$e )(lCons$e (lhd$e A_a_a_prod_a_prod_prod$ )(ltl$e A_a_a_prod_a_prod_prod_llist$ )))))
(declare-sort A_a_a_a_prod_prod_prod$ 0)
(declare-fun fst$e (A_a_a_a_prod_prod_prod$)A$)
(declare-fun snd$e (A_a_a_a_prod_prod_prod$)A_a_a_prod_prod$)
(declare-fun pair$e (A$ A_a_a_prod_prod$ )A_a_a_a_prod_prod_prod$)
(declare-codatatypes ()((A_a_a_a_prod_prod_prod_llist$ (lNil$f )(lCons$f (lhd$f A_a_a_a_prod_prod_prod$ )(ltl$f A_a_a_a_prod_prod_prod_llist$ )))))
(declare-sort A_a_prod_a_prod_a_prod$ 0)
(declare-fun fst$f (A_a_prod_a_prod_a_prod$)A_a_prod_a_prod$)
(declare-fun snd$f (A_a_prod_a_prod_a_prod$)A$)
(declare-fun pair$f (A_a_prod_a_prod$ A$ )A_a_prod_a_prod_a_prod$)
(declare-codatatypes ()((A_a_prod_a_prod_a_prod_llist$ (lNil$g )(lCons$g (lhd$g A_a_prod_a_prod_a_prod$ )(ltl$g A_a_prod_a_prod_a_prod_llist$ )))))
(declare-sort A_a_a_prod_prod_a_prod$ 0)
(declare-fun fst$g (A_a_a_prod_prod_a_prod$)A_a_a_prod_prod$)
(declare-fun snd$g (A_a_a_prod_prod_a_prod$)A$)
(declare-fun pair$g (A_a_a_prod_prod$ A$ )A_a_a_prod_prod_a_prod$)
(declare-codatatypes ()((A_a_a_prod_prod_a_prod_llist$ (lNil$h )(lCons$h (lhd$h A_a_a_prod_prod_a_prod$ )(ltl$h A_a_a_prod_prod_a_prod_llist$ )))))
(declare-sort A_a_a_prod_a_a_prod_prod_prod$ 0)
(declare-fun fst$h (A_a_a_prod_a_a_prod_prod_prod$)A$)
(declare-fun snd$h (A_a_a_prod_a_a_prod_prod_prod$)A_a_prod_a_a_prod_prod$)
(declare-fun pair$h (A$ A_a_prod_a_a_prod_prod$ )A_a_a_prod_a_a_prod_prod_prod$)
(declare-codatatypes ()((A_a_a_prod_a_a_prod_prod_prod_llist$ (lNil$i )(lCons$i (lhd$i A_a_a_prod_a_a_prod_prod_prod$ )(ltl$i A_a_a_prod_a_a_prod_prod_prod_llist$ )))))
(declare-sort A_a_prod_a_a_prod_a_prod_prod$ 0)
(declare-fun fst$i (A_a_prod_a_a_prod_a_prod_prod$)A_a_prod$)
(declare-fun snd$i (A_a_prod_a_a_prod_a_prod_prod$)A_a_prod_a_prod$)
(declare-fun pair$i (A_a_prod$ A_a_prod_a_prod$ )A_a_prod_a_a_prod_a_prod_prod$)
(declare-codatatypes ()((A_a_prod_a_a_prod_a_prod_prod_llist$ (lNil$j )(lCons$j (lhd$j A_a_prod_a_a_prod_a_prod_prod$ )(ltl$j A_a_prod_a_a_prod_a_prod_prod_llist$ )))))
(declare-fun xs$ ()A_llist$ )
(declare-fun acc$ ()A_llist$ )
(declare-fun lzip$ (A_llist$ A_llist$ )A_a_prod_llist$ )
(declare-fun lnull$ (A_llist$ )Bool )
(declare-fun lzip$a (A_llist$ A_a_prod_llist$ )A_a_a_prod_prod_llist$ )
(declare-fun lzip$b (A_a_prod_llist$ A_llist$ )A_a_prod_a_prod_llist$ )
(declare-fun lzip$c (A_a_prod_llist$ A_a_prod_llist$ )A_a_prod_a_a_prod_prod_llist$ )
(declare-fun lzip$d (A_llist$ A_a_prod_a_prod_llist$ )A_a_a_prod_a_prod_prod_llist$ )
(declare-fun lzip$e (A_llist$ A_a_a_prod_prod_llist$ )A_a_a_a_prod_prod_prod_llist$ )
(declare-fun lzip$f (A_a_prod_a_prod_llist$ A_llist$ )A_a_prod_a_prod_a_prod_llist$ )
(declare-fun lzip$g (A_a_a_prod_prod_llist$ A_llist$ )A_a_a_prod_prod_a_prod_llist$ )
(declare-fun lzip$h (A_llist$ A_a_prod_a_a_prod_prod_llist$ )A_a_a_prod_a_a_prod_prod_prod_llist$ )
(declare-fun lzip$i (A_a_prod_llist$ A_a_prod_a_prod_llist$ )A_a_prod_a_a_prod_a_prod_prod_llist$ )
(declare-fun ldropn$ (Nat$ A_a_prod_a_a_prod_prod_llist$ )A_a_prod_a_a_prod_prod_llist$ )
(declare-fun fun_app$ (A_llist_a_llist_fun$ A_llist$ )A_llist$ )
(declare-fun ldropn$a (Nat$ A_a_prod_a_prod_llist$ )A_a_prod_a_prod_llist$ )
(declare-fun ldropn$b (Nat$ A_a_a_prod_prod_llist$ )A_a_a_prod_prod_llist$ )
(declare-fun ldropn$c (Nat$ A_a_prod_llist$ )A_a_prod_llist$ )
(declare-fun ldropn$d (Nat$ A_llist$ )A_llist$ )
(declare-fun lfinite$ (A_llist$ )Bool )
(declare-fun lmirror$ ()A_a_prod_llist_a_a_prod_llist_fun$ )
(declare-fun fun_app$a (A_a_prod_llist_a_a_prod_llist_fun$ A_a_prod_llist$ )A_a_prod_llist$ )
(declare-fun lfinite$a (A_a_prod_a_a_prod_prod_llist$ )Bool )
(declare-fun lfinite$b (A_a_prod_a_prod_llist$ )Bool )
(declare-fun lfinite$c (A_a_a_prod_prod_llist$ )Bool )
(declare-fun lfinite$d (A_a_prod_llist$ )Bool )
(declare-fun lfinite$e (A_a_a_prod_a_prod_prod_llist$ )Bool )
(declare-fun lfinite$f (A_a_a_a_prod_prod_prod_llist$ )Bool )
(declare-fun lfinite$g (A_a_prod_a_prod_a_prod_llist$ )Bool )
(declare-fun lfinite$h (A_a_a_prod_prod_a_prod_llist$ )Bool )
(declare-fun lfinite$i (A_a_a_prod_a_a_prod_prod_prod_llist$ )Bool )
(declare-fun lfinite$j (A_a_prod_a_a_prod_a_prod_prod_llist$ )Bool )
(declare-fun lmirror$a ()A_llist_a_llist_fun$ )
(declare-fun lmirror_aux$ (A_llist$ )A_llist_a_llist_fun$ )
(declare-fun lmirror_aux$a (A_a_prod_llist$ )A_a_prod_llist_a_a_prod_llist_fun$ )
(declare-fun lstrict_prefix$ (A_a_prod_a_a_prod_prod_llist$ A_a_prod_a_a_prod_prod_llist$ )Bool )
(declare-fun lstrict_prefix$a (A_a_prod_a_prod_llist$ A_a_prod_a_prod_llist$ )Bool )
(declare-fun lstrict_prefix$b (A_a_a_prod_prod_llist$ A_a_a_prod_prod_llist$ )Bool )
(declare-fun lstrict_prefix$c (A_a_prod_llist$ A_a_prod_llist$ )Bool )
(declare-fun lstrict_prefix$d (A_llist$ A_llist$ )Bool )
(assert (! (not (lfinite$ (fun_app$ (lmirror_aux$ acc$ )xs$ ))):named a0 ))
(assert (! (lfinite$ xs$ ):named a1 ))
(assert (! (lfinite$ acc$ ):named a2 ))
(assert (! (and (lfinite$ xs$ )(lfinite$ acc$ )):named a3 ))
(assert (! (forall ((?v0 A_a_prod_llist$ ))(! (= (fun_app$a (lmirror_aux$a ?v0 )lNil$a )?v0 ):pattern ((lmirror_aux$a ?v0 )))):named a4 ))
(assert (! (forall ((?v0 A_llist$ ))(! (= (fun_app$ (lmirror_aux$ ?v0 )lNil$ )?v0 ):pattern ((lmirror_aux$ ?v0 )))):named a5 ))
(assert (! (forall ((?v0 A_a_prod_llist$ )(?v1 A_a_prod$ )(?v2 A_a_prod_llist$ ))(! (= (fun_app$a (lmirror_aux$a ?v0 )(lCons$a ?v1 ?v2 ))(lCons$a ?v1 (fun_app$a (lmirror_aux$a (lCons$a ?v1 ?v0 ))?v2 ))):pattern ((fun_app$a (lmirror_aux$a ?v0 )(lCons$a ?v1 ?v2 ))))):named a6 ))
(assert (! (forall ((?v0 A_llist$ )(?v1 A$ )(?v2 A_llist$ ))(! (= (fun_app$ (lmirror_aux$ ?v0 )(lCons$ ?v1 ?v2 ))(lCons$ ?v1 (fun_app$ (lmirror_aux$ (lCons$ ?v1 ?v0 ))?v2 ))):pattern ((fun_app$ (lmirror_aux$ ?v0 )(lCons$ ?v1 ?v2 ))))):named a7 ))
(assert (! (forall ((?v0 A_llist$ )(?v1 A_llist$ ))(= (not (lnull$ (fun_app$ (lmirror_aux$ ?v0 )?v1 )))(or (not (lnull$ ?v1 ))(not (lnull$ ?v0 ))))):named a8 ))
(assert (! (forall ((?v0 A_llist$ )(?v1 A_llist$ ))(= (lnull$ (fun_app$ (lmirror_aux$ ?v0 )?v1 ))(and (lnull$ ?v1 )(lnull$ ?v0 )))):named a9 ))
(assert (! (forall ((?v0 A_llist$ )(?v1 A_llist$ ))(=> (or (not (lnull$ ?v0 ))(not (lnull$ ?v1 )))(not (lnull$ (fun_app$ (lmirror_aux$ ?v1 )?v0 ))))):named a10 ))
(assert (! (forall ((?v0 A_llist$ )(?v1 A_llist$ ))(=> (and (lnull$ ?v0 )(lnull$ ?v1 ))(lnull$ (fun_app$ (lmirror_aux$ ?v1 )?v0 )))):named a11 ))
(assert (! (= lmirror$ (lmirror_aux$a lNil$a )):named a12 ))
(assert (! (= lmirror$a (lmirror_aux$ lNil$ )):named a13 ))
(assert (! (forall ((?v0 A_a_prod_a_a_prod_prod_llist$ )(?v1 A_a_prod_a_a_prod_prod_llist$ ))(=> (lstrict_prefix$ ?v0 ?v1 )(lfinite$a ?v0 ))):named a14 ))
(assert (! (forall ((?v0 A_a_prod_a_prod_llist$ )(?v1 A_a_prod_a_prod_llist$ ))(=> (lstrict_prefix$a ?v0 ?v1 )(lfinite$b ?v0 ))):named a15 ))
(assert (! (forall ((?v0 A_a_a_prod_prod_llist$ )(?v1 A_a_a_prod_prod_llist$ ))(=> (lstrict_prefix$b ?v0 ?v1 )(lfinite$c ?v0 ))):named a16 ))
(assert (! (forall ((?v0 A_a_prod_llist$ )(?v1 A_a_prod_llist$ ))(=> (lstrict_prefix$c ?v0 ?v1 )(lfinite$d ?v0 ))):named a17 ))
(assert (! (forall ((?v0 A_llist$ )(?v1 A_llist$ ))(=> (lstrict_prefix$d ?v0 ?v1 )(lfinite$ ?v0 ))):named a18 ))
(assert (! (= (lfinite$a lNil$b )true ):named a19 ))
(assert (! (= (lfinite$b lNil$c )true ):named a20 ))
(assert (! (= (lfinite$c lNil$d )true ):named a21 ))
(assert (! (= (lfinite$d lNil$a )true ):named a22 ))
(assert (! (= (lfinite$ lNil$ )true ):named a23 ))
(assert (! (forall ((?v0 Nat$ )(?v1 A_a_prod_a_a_prod_prod_llist$ ))(= (lfinite$a (ldropn$ ?v0 ?v1 ))(lfinite$a ?v1 ))):named a24 ))
(assert (! (forall ((?v0 Nat$ )(?v1 A_a_prod_a_prod_llist$ ))(= (lfinite$b (ldropn$a ?v0 ?v1 ))(lfinite$b ?v1 ))):named a25 ))
(assert (! (forall ((?v0 Nat$ )(?v1 A_a_a_prod_prod_llist$ ))(= (lfinite$c (ldropn$b ?v0 ?v1 ))(lfinite$c ?v1 ))):named a26 ))
(assert (! (forall ((?v0 Nat$ )(?v1 A_a_prod_llist$ ))(= (lfinite$d (ldropn$c ?v0 ?v1 ))(lfinite$d ?v1 ))):named a27 ))
(assert (! (forall ((?v0 Nat$ )(?v1 A_llist$ ))(= (lfinite$ (ldropn$d ?v0 ?v1 ))(lfinite$ ?v1 ))):named a28 ))
(assert (! (forall ((?v0 A_llist$ )(?v1 A_llist$ ))(= (lfinite$d (lzip$ ?v0 ?v1 ))(or (lfinite$ ?v0 )(lfinite$ ?v1 )))):named a29 ))
(assert (! (forall ((?v0 A_llist$ )(?v1 A_a_prod_llist$ ))(= (lfinite$c (lzip$a ?v0 ?v1 ))(or (lfinite$ ?v0 )(lfinite$d ?v1 )))):named a30 ))
(assert (! (forall ((?v0 A_a_prod_llist$ )(?v1 A_llist$ ))(= (lfinite$b (lzip$b ?v0 ?v1 ))(or (lfinite$d ?v0 )(lfinite$ ?v1 )))):named a31 ))
(assert (! (forall ((?v0 A_a_prod_llist$ )(?v1 A_a_prod_llist$ ))(= (lfinite$a (lzip$c ?v0 ?v1 ))(or (lfinite$d ?v0 )(lfinite$d ?v1 )))):named a32 ))
(assert (! (forall ((?v0 A_llist$ )(?v1 A_a_prod_a_prod_llist$ ))(= (lfinite$e (lzip$d ?v0 ?v1 ))(or (lfinite$ ?v0 )(lfinite$b ?v1 )))):named a33 ))
(assert (! (forall ((?v0 A_llist$ )(?v1 A_a_a_prod_prod_llist$ ))(= (lfinite$f (lzip$e ?v0 ?v1 ))(or (lfinite$ ?v0 )(lfinite$c ?v1 )))):named a34 ))
(assert (! (forall ((?v0 A_a_prod_a_prod_llist$ )(?v1 A_llist$ ))(= (lfinite$g (lzip$f ?v0 ?v1 ))(or (lfinite$b ?v0 )(lfinite$ ?v1 )))):named a35 ))
(assert (! (forall ((?v0 A_a_a_prod_prod_llist$ )(?v1 A_llist$ ))(= (lfinite$h (lzip$g ?v0 ?v1 ))(or (lfinite$c ?v0 )(lfinite$ ?v1 )))):named a36 ))
(assert (! (forall ((?v0 A_llist$ )(?v1 A_a_prod_a_a_prod_prod_llist$ ))(= (lfinite$i (lzip$h ?v0 ?v1 ))(or (lfinite$ ?v0 )(lfinite$a ?v1 )))):named a37 ))
(assert (! (forall ((?v0 A_a_prod_llist$ )(?v1 A_a_prod_a_prod_llist$ ))(= (lfinite$j (lzip$i ?v0 ?v1 ))(or (lfinite$d ?v0 )(lfinite$b ?v1 )))):named a38 ))
(assert (! (forall ((?v0 A_a_prod_a_a_prod_prod$ )(?v1 A_a_prod_a_a_prod_prod_llist$ ))(! (= (lfinite$a (lCons$b ?v0 ?v1 ))(lfinite$a ?v1 )):pattern ((lCons$b ?v0 ?v1 )))):named a39 ))
(assert (! (forall ((?v0 A_a_prod_a_prod$ )(?v1 A_a_prod_a_prod_llist$ ))(! (= (lfinite$b (lCons$c ?v0 ?v1 ))(lfinite$b ?v1 )):pattern ((lCons$c ?v0 ?v1 )))):named a40 ))
(assert (! (forall ((?v0 A_a_a_prod_prod$ )(?v1 A_a_a_prod_prod_llist$ ))(! (= (lfinite$c (lCons$d ?v0 ?v1 ))(lfinite$c ?v1 )):pattern ((lCons$d ?v0 ?v1 )))):named a41 ))
(assert (! (forall ((?v0 A_a_prod$ )(?v1 A_a_prod_llist$ ))(! (= (lfinite$d (lCons$a ?v0 ?v1 ))(lfinite$d ?v1 )):pattern ((lCons$a ?v0 ?v1 )))):named a42 ))
(assert (! (forall ((?v0 A$ )(?v1 A_llist$ ))(! (= (lfinite$ (lCons$ ?v0 ?v1 ))(lfinite$ ?v1 )):pattern ((lCons$ ?v0 ?v1 )))):named a43 ))
(assert (! (forall ((?v0 A_a_prod$ )(?v1 A_a_prod_llist$ )(?v2 A_a_prod$ )(?v3 A_a_prod_llist$ ))(= (= (lCons$a ?v0 ?v1 )(lCons$a ?v2 ?v3 ))(and (= ?v0 ?v2 )(= ?v1 ?v3 )))):named a44 ))
(assert (! (forall ((?v0 A$ )(?v1 A_llist$ )(?v2 A$ )(?v3 A_llist$ ))(= (= (lCons$ ?v0 ?v1 )(lCons$ ?v2 ?v3 ))(and (= ?v0 ?v2 )(= ?v1 ?v3 )))):named a45 ))
(assert (! (forall ((?v0 A_a_prod_a_a_prod_prod$ )(?v1 A_a_prod_a_a_prod_prod_llist$ ))(! (= (lfinite$a (lCons$b ?v0 ?v1 ))(lfinite$a ?v1 )):pattern ((lCons$b ?v0 ?v1 )))):named a46 ))
(assert (! (forall ((?v0 A_a_prod_a_prod$ )(?v1 A_a_prod_a_prod_llist$ ))(! (= (lfinite$b (lCons$c ?v0 ?v1 ))(lfinite$b ?v1 )):pattern ((lCons$c ?v0 ?v1 )))):named a47 ))
(assert (! (forall ((?v0 A_a_a_prod_prod$ )(?v1 A_a_a_prod_prod_llist$ ))(! (= (lfinite$c (lCons$d ?v0 ?v1 ))(lfinite$c ?v1 )):pattern ((lCons$d ?v0 ?v1 )))):named a48 ))
(assert (! (forall ((?v0 A_a_prod$ )(?v1 A_a_prod_llist$ ))(! (= (lfinite$d (lCons$a ?v0 ?v1 ))(lfinite$d ?v1 )):pattern ((lCons$a ?v0 ?v1 )))):named a49 ))
(assert (! (forall ((?v0 A$ )(?v1 A_llist$ ))(! (= (lfinite$ (lCons$ ?v0 ?v1 ))(lfinite$ ?v1 )):pattern ((lCons$ ?v0 ?v1 )))):named a50 ))
(check-sat )
;(get-unsat-core )
